300
100 100
1 70 590
2 70 454
3 70 91
4 69 217
5 69 204
6 69 582
7 69 483
8 69 547
9 69 72
10 69 723
11 69 986
12 68 764
13 68 148
14 68 24
15 67 216
16 67 836
17 67 194
18 67 951
19 67 250
20 66 315
21 66 324
22 66 479
23 66 871
24 66 478
25 65 574
26 65 439
27 64 132
28 64 506
29 64 615
30 63 682
31 63 526
32 63 30
33 63 49
34 62 318
35 62 677
36 62 24
37 62 414
38 62 343
39 62 343
40 61 83
41 61 41
42 61 771
43 61 489
44 61 821
45 60 448
46 60 331
47 60 154
48 60 275
49 60 450
50 60 424
51 60 955
52 59 987
53 59 558
54 59 714
55 59 650
56 59 243
57 59 151
58 58 147
59 58 66
60 58 487
61 57 227
62 57 589
63 57 249
64 56 123
65 56 335
66 56 105
67 55 980
68 55 653
69 55 687
70 55 693
71 54 296
72 54 71
73 54 579
74 53 65
75 53 37
76 53 583
77 53 42
78 53 547
79 53 235
80 53 875
81 52 508
82 52 428
83 52 285
84 52 217
85 52 69
86 52 593
87 52 706
88 51 663
89 51 405
90 51 356
91 51 409
92 51 129
93 51 464
94 51 157
95 50 756
96 50 812
97 50 289
98 49 805
99 49 367
100 49 133
101 49 673
102 49 411
103 49 70
104 49 336
105 48 475
106 48 748
107 48 83
108 48 700
109 47 592
110 47 772
111 47 456
112 46 110
113 46 492
114 46 853
115 46 100
116 46 887
117 45 827
118 45 697
119 45 613
120 45 776
121 45 634
122 45 937
123 44 514
124 44 249
125 44 813
126 44 10
127 44 318
128 43 448
129 43 737
130 43 163
131 43 948
132 43 662
133 42 786
134 42 605
135 42 369
136 42 481
137 42 680
138 41 566
139 41 633
140 40 809
141 40 396
142 40 110
143 40 207
144 39 991
145 39 599
146 39 188
147 38 769
148 38 557
149 38 924
150 38 147
151 38 299
152 37 717
153 37 298
154 37 722
155 36 565
156 36 280
157 36 930
158 35 109
159 35 961
160 35 439
161 35 269
162 35 147
163 35 844
164 34 856
165 34 217
166 34 276
167 34 692
168 33 994
169 33 644
170 33 197
171 33 415
172 33 396
173 33 900
174 32 92
175 32 170
176 32 603
177 32 348
178 32 463
179 32 254
180 32 43
181 32 910
182 31 259
183 31 569
184 31 237
185 31 521
186 31 79
187 30 422
188 30 758
189 30 673
190 30 501
191 29 962
192 29 858
193 29 473
194 29 923
195 28 800
196 28 877
197 28 824
198 28 943
199 27 895
200 27 624
201 27 33
202 27 802
203 27 359
204 27 808
205 27 850
206 27 598
207 27 880
208 27 468
209 26 969
210 26 213
211 26 409
212 26 838
213 26 560
214 25 399
215 25 615
216 25 887
217 24 198
218 24 465
219 24 406
220 24 316
221 24 599
222 24 497
223 23 141
224 23 429
225 23 932
226 23 709
227 23 425
228 23 796
229 23 556
230 22 630
231 22 582
232 22 853
233 21 842
234 21 69
235 21 171
236 21 619
237 21 574
238 21 760
239 20 856
240 20 267
241 20 931
242 20 940
243 20 273
244 19 475
245 19 155
246 19 67
247 19 549
248 19 232
249 19 159
250 18 328
251 18 501
252 18 279
253 18 923
254 18 980
255 18 873
256 17 924
257 17 499
258 17 172
259 17 978
260 16 26
261 16 934
262 15 431
263 15 498
264 15 841
265 15 751
266 15 820
267 15 281
268 15 690
269 15 49
270 14 385
271 14 363
272 14 176
273 14 148
274 14 26
275 14 286
276 13 405
277 13 155
278 13 533
279 13 527
280 13 39
281 12 866
282 12 66
283 12 868
284 12 411
285 12 613
286 12 275
287 11 478
288 11 451
289 11 197
290 11 53
291 11 975
292 11 430
293 11 231
294 11 333
295 10 279
296 10 617
297 10 657
298 10 135
299 10 644
300 10 251
